certificates/rado_a13_c144_N25.cnf
c Rad2 upper bound instance: x1 + 13*x2 - x3 = 144, interval [1,25]
p cnf 25 96
1 12 13 0
-1 -12 -13 0
1 2 11 0
-1 -2 -11 0
2 12 14 0
-2 -12 -14 0
2 3 11 0
-2 -3 -11 0
3 12 15 0
-3 -12 -15 0
3 4 11 0
-3 -4 -11 0
4 12 16 0
-4 -12 -16 0
4 5 11 0
-4 -5 -11 0
5 12 17 0
-5 -12 -17 0
5 6 11 0
-5 -6 -11 0
6 12 18 0
-6 -12 -18 0
6 7 11 0
-6 -7 -11 0
7 12 19 0
-7 -12 -19 0
7 8 11 0
-7 -8 -11 0
8 12 20 0
-8 -12 -20 0
8 9 11 0
-8 -9 -11 0
9 12 21 0
-9 -12 -21 0
9 10 11 0
-9 -10 -11 0
10 12 22 0
-10 -12 -22 0
10 11 0
-10 -11 0
11 12 23 0
-11 -12 -23 0
11 12 0
-11 -12 0
12 24 0
-12 -24 0
11 12 13 0
-11 -12 -13 0
12 13 25 0
-12 -13 -25 0
11 13 14 0
-11 -13 -14 0
1 10 15 0
-1 -10 -15 0
11 14 15 0
-11 -14 -15 0
2 10 16 0
-2 -10 -16 0
11 15 16 0
-11 -15 -16 0
3 10 17 0
-3 -10 -17 0
11 16 17 0
-11 -16 -17 0
4 10 18 0
-4 -10 -18 0
11 17 18 0
-11 -17 -18 0
5 10 19 0
-5 -10 -19 0
11 18 19 0
-11 -18 -19 0
6 10 20 0
-6 -10 -20 0
11 19 20 0
-11 -19 -20 0
7 10 21 0
-7 -10 -21 0
11 20 21 0
-11 -20 -21 0
8 10 22 0
-8 -10 -22 0
11 21 22 0
-11 -21 -22 0
9 10 23 0
-9 -10 -23 0
11 22 23 0
-11 -22 -23 0
10 24 0
-10 -24 0
11 23 24 0
-11 -23 -24 0
10 11 25 0
-10 -11 -25 0
11 24 25 0
-11 -24 -25 0
