certificates/rado_a13_c144_N25.drat
-24 -25 0
-25 0
24 0
-12 0
-10 0
22 0
11 0
13 0
-23 0
-21 0
-14 0
9 0
7 0
2 0
-8 0
-6 0
-1 0
-3 0
20 0
18 0
15 0
17 0
-19 0
0
